(declare-fun X0 () Int)
(declare-fun X1 () Int)
(declare-fun X2 () Int)
(declare-fun X3 () Int)
(declare-fun X4 () Int)
(declare-fun X5 () Int)
(declare-fun X6 () Int)
(declare-fun X7 () Int)
(declare-fun X8 () Int)
(declare-fun X9 () Int)
(declare-fun X10 () Int)
(declare-fun X11 () Int)
(declare-fun X12 () Int)
(declare-fun X13 () Int)
(declare-fun X14 () Int)
(declare-fun X15 () Int)
(declare-fun X16 () Int)
(assert (<= (- X1 X0) 5))
(assert (>= (- X1 X0) 0))
(assert (<= (- X2 X0) 5))
(assert (>= (- X2 X0) 0))
(assert (<= (- X2 X1) 5))
(assert (>= (- X2 X1) 0))
(assert (<= (- X3 X0) 5))
(assert (>= (- X3 X0) 0))
(assert (<= (- X3 X1) 5))
(assert (>= (- X3 X1) 0))
(assert (<= (- X3 X2) 5))
(assert (>= (- X3 X2) 0))
(assert (<= (- X4 X0) 5))
(assert (>= (- X4 X0) 0))
(assert (<= (- X4 X1) 5))
(assert (>= (- X4 X1) 0))
(assert (<= (- X4 X2) 5))
(assert (>= (- X4 X2) 0))
(assert (<= (- X4 X3) 5))
(assert (>= (- X4 X3) 0))
(assert (<= (- X5 X0) 5))
(assert (>= (- X5 X0) 0))
(assert (<= (- X5 X1) 5))
(assert (>= (- X5 X1) 0))
(assert (<= (- X5 X2) 5))
(assert (>= (- X5 X2) 0))
(assert (<= (- X5 X3) 5))
(assert (>= (- X5 X3) 0))
(assert (<= (- X5 X4) 5))
(assert (>= (- X5 X4) 0))
(assert (<= (- X6 X0) 5))
(assert (>= (- X6 X0) 0))
(assert (<= (- X6 X1) 5))
(assert (>= (- X6 X1) 0))
(assert (<= (- X6 X2) 5))
(assert (>= (- X6 X2) 0))
(assert (<= (- X6 X3) 5))
(assert (>= (- X6 X3) 0))
(assert (<= (- X6 X4) 5))
(assert (>= (- X6 X4) 0))
(assert (<= (- X6 X5) 5))
(assert (>= (- X6 X5) 0))
(assert (<= (- X7 X0) 5))
(assert (>= (- X7 X0) 0))
(assert (<= (- X7 X1) 5))
(assert (>= (- X7 X1) 0))
(assert (<= (- X7 X2) 5))
(assert (>= (- X7 X2) 0))
(assert (<= (- X7 X3) 5))
(assert (>= (- X7 X3) 0))
(assert (<= (- X7 X4) 5))
(assert (>= (- X7 X4) 0))
(assert (<= (- X7 X5) 5))
(assert (>= (- X7 X5) 0))
(assert (<= (- X7 X6) 5))
(assert (>= (- X7 X6) 0))
(assert (<= (- X8 X0) 5))
(assert (>= (- X8 X0) 0))
(assert (<= (- X8 X1) 5))
(assert (>= (- X8 X1) 0))
(assert (<= (- X8 X2) 5))
(assert (>= (- X8 X2) 0))
(assert (<= (- X8 X3) 5))
(assert (>= (- X8 X3) 0))
(assert (<= (- X8 X4) 5))
(assert (>= (- X8 X4) 0))
(assert (<= (- X8 X5) 5))
(assert (>= (- X8 X5) 0))
(assert (<= (- X8 X6) 5))
(assert (>= (- X8 X6) 0))
(assert (<= (- X8 X7) 5))
(assert (>= (- X8 X7) 0))
(assert (<= (- X9 X0) 5))
(assert (>= (- X9 X0) 0))
(assert (<= (- X9 X1) 5))
(assert (>= (- X9 X1) 0))
(assert (<= (- X9 X2) 5))
(assert (>= (- X9 X2) 0))
(assert (<= (- X9 X3) 5))
(assert (>= (- X9 X3) 0))
(assert (<= (- X9 X4) 5))
(assert (>= (- X9 X4) 0))
(assert (<= (- X9 X5) 5))
(assert (>= (- X9 X5) 0))
(assert (<= (- X9 X6) 5))
(assert (>= (- X9 X6) 0))
(assert (<= (- X9 X7) 5))
(assert (>= (- X9 X7) 0))
(assert (<= (- X9 X8) 5))
(assert (>= (- X9 X8) 0))
(assert (<= (- X10 X0) 5))
(assert (>= (- X10 X0) 0))
(assert (<= (- X10 X1) 5))
(assert (>= (- X10 X1) 0))
(assert (<= (- X10 X2) 5))
(assert (>= (- X10 X2) 0))
(assert (<= (- X10 X3) 5))
(assert (>= (- X10 X3) 0))
(assert (<= (- X10 X4) 5))
(assert (>= (- X10 X4) 0))
(assert (<= (- X10 X5) 5))
(assert (>= (- X10 X5) 0))
(assert (<= (- X10 X6) 5))
(assert (>= (- X10 X6) 0))
(assert (<= (- X10 X7) 5))
(assert (>= (- X10 X7) 0))
(assert (<= (- X10 X8) 5))
(assert (>= (- X10 X8) 0))
(assert (<= (- X10 X9) 5))
(assert (>= (- X10 X9) 0))
(assert (<= (- X11 X0) 5))
(assert (>= (- X11 X0) 0))
(assert (<= (- X11 X1) 5))
(assert (>= (- X11 X1) 0))
(assert (<= (- X11 X2) 5))
(assert (>= (- X11 X2) 0))
(assert (<= (- X11 X3) 5))
(assert (>= (- X11 X3) 0))
(assert (<= (- X11 X4) 5))
(assert (>= (- X11 X4) 0))
(assert (<= (- X11 X5) 5))
(assert (>= (- X11 X5) 0))
(assert (<= (- X11 X6) 5))
(assert (>= (- X11 X6) 0))
(assert (<= (- X11 X7) 5))
(assert (>= (- X11 X7) 0))
(assert (<= (- X11 X8) 5))
(assert (>= (- X11 X8) 0))
(assert (<= (- X11 X9) 5))
(assert (>= (- X11 X9) 0))
(assert (<= (- X11 X10) 5))
(assert (>= (- X11 X10) 0))
(assert (<= (- X12 X0) 5))
(assert (>= (- X12 X0) 0))
(assert (<= (- X12 X1) 5))
(assert (>= (- X12 X1) 0))
(assert (<= (- X12 X2) 5))
(assert (>= (- X12 X2) 0))
(assert (<= (- X12 X3) 5))
(assert (>= (- X12 X3) 0))
(assert (<= (- X12 X4) 5))
(assert (>= (- X12 X4) 0))
(assert (<= (- X12 X5) 5))
(assert (>= (- X12 X5) 0))
(assert (<= (- X12 X6) 5))
(assert (>= (- X12 X6) 0))
(assert (<= (- X12 X7) 5))
(assert (>= (- X12 X7) 0))
(assert (<= (- X12 X8) 5))
(assert (>= (- X12 X8) 0))
(assert (<= (- X12 X9) 5))
(assert (>= (- X12 X9) 0))
(assert (<= (- X12 X10) 5))
(assert (>= (- X12 X10) 0))
(assert (<= (- X12 X11) 5))
(assert (>= (- X12 X11) 0))
(assert (<= (- X13 X0) 5))
(assert (>= (- X13 X0) 0))
(assert (<= (- X13 X1) 5))
(assert (>= (- X13 X1) 0))
(assert (<= (- X13 X2) 5))
(assert (>= (- X13 X2) 0))
(assert (<= (- X13 X3) 5))
(assert (>= (- X13 X3) 0))
(assert (<= (- X13 X4) 5))
(assert (>= (- X13 X4) 0))
(assert (<= (- X13 X5) 5))
(assert (>= (- X13 X5) 0))
(assert (<= (- X13 X6) 5))
(assert (>= (- X13 X6) 0))
(assert (<= (- X13 X7) 5))
(assert (>= (- X13 X7) 0))
(assert (<= (- X13 X8) 5))
(assert (>= (- X13 X8) 0))
(assert (<= (- X13 X9) 5))
(assert (>= (- X13 X9) 0))
(assert (<= (- X13 X10) 5))
(assert (>= (- X13 X10) 0))
(assert (<= (- X13 X11) 5))
(assert (>= (- X13 X11) 0))
(assert (<= (- X13 X12) 5))
(assert (>= (- X13 X12) 0))
(assert (<= (- X14 X0) 5))
(assert (>= (- X14 X0) 0))
(assert (<= (- X14 X1) 5))
(assert (>= (- X14 X1) 0))
(assert (<= (- X14 X2) 5))
(assert (>= (- X14 X2) 0))
(assert (<= (- X14 X3) 5))
(assert (>= (- X14 X3) 0))
(assert (<= (- X14 X4) 5))
(assert (>= (- X14 X4) 0))
(assert (<= (- X14 X5) 5))
(assert (>= (- X14 X5) 0))
(assert (<= (- X14 X6) 5))
(assert (>= (- X14 X6) 0))
(assert (<= (- X14 X7) 5))
(assert (>= (- X14 X7) 0))
(assert (<= (- X14 X8) 5))
(assert (>= (- X14 X8) 0))
(assert (<= (- X14 X9) 5))
(assert (>= (- X14 X9) 0))
(assert (<= (- X14 X10) 5))
(assert (>= (- X14 X10) 0))
(assert (<= (- X14 X11) 5))
(assert (>= (- X14 X11) 0))
(assert (<= (- X14 X12) 5))
(assert (>= (- X14 X12) 0))
(assert (<= (- X14 X13) 5))
(assert (>= (- X14 X13) 0))
(assert (<= (- X15 X0) 5))
(assert (>= (- X15 X0) 0))
(assert (<= (- X15 X1) 5))
(assert (>= (- X15 X1) 0))
(assert (<= (- X15 X2) 5))
(assert (>= (- X15 X2) 0))
(assert (<= (- X15 X3) 5))
(assert (>= (- X15 X3) 0))
(assert (<= (- X15 X4) 5))
(assert (>= (- X15 X4) 0))
(assert (<= (- X15 X5) 5))
(assert (>= (- X15 X5) 0))
(assert (<= (- X15 X6) 5))
(assert (>= (- X15 X6) 0))
(assert (<= (- X15 X7) 5))
(assert (>= (- X15 X7) 0))
(assert (<= (- X15 X8) 5))
(assert (>= (- X15 X8) 0))
(assert (<= (- X15 X9) 5))
(assert (>= (- X15 X9) 0))
(assert (<= (- X15 X10) 5))
(assert (>= (- X15 X10) 0))
(assert (<= (- X15 X11) 5))
(assert (>= (- X15 X11) 0))
(assert (<= (- X15 X12) 5))
(assert (>= (- X15 X12) 0))
(assert (<= (- X15 X13) 5))
(assert (>= (- X15 X13) 0))
(assert (<= (- X15 X14) 5))
(assert (>= (- X15 X14) 0))
(assert (<= (- X16 X0) 5))
(assert (>= (- X16 X0) 0))
(assert (<= (- X16 X1) 5))
(assert (>= (- X16 X1) 0))
(assert (<= (- X16 X2) 5))
(assert (>= (- X16 X2) 0))
(assert (<= (- X16 X3) 5))
(assert (>= (- X16 X3) 0))
(assert (<= (- X16 X4) 5))
(assert (>= (- X16 X4) 0))
(assert (<= (- X16 X5) 5))
(assert (>= (- X16 X5) 0))
(assert (<= (- X16 X6) 5))
(assert (>= (- X16 X6) 0))
(assert (<= (- X16 X7) 5))
(assert (>= (- X16 X7) 0))
(assert (<= (- X16 X8) 5))
(assert (>= (- X16 X8) 0))
(assert (<= (- X16 X9) 5))
(assert (>= (- X16 X9) 0))
(assert (<= (- X16 X10) 5))
(assert (>= (- X16 X10) 0))
(assert (<= (- X16 X11) 5))
(assert (>= (- X16 X11) 0))
(assert (<= (- X16 X12) 5))
(assert (>= (- X16 X12) 0))
(assert (<= (- X16 X13) 5))
(assert (>= (- X16 X13) 0))
(assert (<= (- X16 X14) 5))
(assert (>= (- X16 X14) 0))
(assert (<= (- X16 X15) 5))
(assert (>= (- X16 X15) 0))
(check-sat)
